;; produced by cvc4_16.drv ;;
(set-logic AUFBVFPDTNIRA)
(set-info :smt-lib-version 2.6)
;;; generated by SMT-LIB2 driver
;;; SMT-LIB2 driver: bit-vectors, common part
;;; SMT-LIB2: integer arithmetic
(declare-sort string 0)

(declare-datatypes ((tuple0 0))
(((Tuple0))))
(declare-sort us_private 0)

(declare-fun private__bool_eq (us_private us_private) Bool)

(declare-const us_null_ext__ us_private)

(declare-sort us_type_of_heap 0)

(declare-datatypes ((us_type_of_heap__ref 0))
(((us_type_of_heap__refqtmk (us_type_of_heap__content us_type_of_heap)))))
(declare-sort us_image 0)

(declare-datatypes ((int__ref 0))
(((int__refqtmk (int__content Int)))))
(declare-datatypes ((bool__ref 0))
(((bool__refqtmk (bool__content Bool)))))
(declare-datatypes ((us_fixed__ref 0))
(((us_fixed__refqtmk (us_fixed__content Int)))))
(declare-datatypes ((real__ref 0))
(((real__refqtmk (real__content Real)))))
(declare-datatypes ((us_private__ref 0))
(((us_private__refqtmk (us_private__content us_private)))))
(define-fun int__ref___projection ((a int__ref)) Int (int__content a))

(define-fun us_fixed__ref___projection ((a us_fixed__ref)) Int (us_fixed__content
                                                               a))

(define-fun bool__ref___projection ((a bool__ref)) Bool (bool__content a))

(define-fun real__ref___projection ((a real__ref)) Real (real__content a))

(define-fun us_private__ref___projection ((a us_private__ref)) us_private 
  (us_private__content a))

(define-fun length ((x Int) (y Int)) Int (ite (<= x y) (+ (- y x) 1) 0))

(declare-fun nth ((_ BitVec 8) Int) Bool)

(declare-fun lsr ((_ BitVec 8) Int) (_ BitVec 8))

(declare-fun asr ((_ BitVec 8) Int) (_ BitVec 8))

(declare-fun lsl ((_ BitVec 8) Int) (_ BitVec 8))

(define-fun abs1 ((x Int)) Int (ite (<= 0 x) x (- x)))

;; Abs_le
  (assert
  (forall ((x Int) (y Int)) (= (<= (abs1 x) y) (and (<= (- y) x) (<= x y)))))

;; Abs_pos
  (assert (forall ((x Int)) (<= 0 (abs1 x))))

;; Div_unique
  (assert
  (forall ((x Int) (y Int) (q Int))
  (=> (< 0 y) (=> (and (<= (* q y) x) (< x (+ (* q y) y))) (= (div x y) q)))))

;; Div_bound
  (assert
  (forall ((x Int) (y Int))
  (=> (and (<= 0 x) (< 0 y)) (and (<= 0 (div x y)) (<= (div x y) x)))))

;; Div_inf
  (assert
  (forall ((x Int) (y Int)) (=> (and (<= 0 x) (< x y)) (= (div x y) 0))))

;; Div_inf_neg
  (assert
  (forall ((x Int) (y Int))
  (=> (and (< 0 x) (<= x y)) (= (div (- x) y) (- 1)))))

;; Mod_0
  (assert (forall ((y Int)) (=> (not (= y 0)) (= (mod 0 y) 0))))

;; Div_1_left
  (assert (forall ((y Int)) (=> (< 1 y) (= (div 1 y) 0))))

;; Div_minus1_left
  (assert (forall ((y Int)) (=> (< 1 y) (= (div (- 1) y) (- 1)))))

;; Mod_1_left
  (assert (forall ((y Int)) (=> (< 1 y) (= (mod 1 y) 1))))

;; Mod_minus1_left
  (assert
  (forall ((y Int))
  (! (=> (< 1 y) (= (mod (- 1) y) (- y 1))) :pattern ((mod (- 1) y)) )))

;; Div_mult
  (assert
  (forall ((x Int) (y Int) (z Int))
  (! (=> (< 0 x) (= (div (+ (* x y) z) x) (+ y (div z x)))) :pattern ((div (+ (* x y) z) x)) )))

;; Mod_mult
  (assert
  (forall ((x Int) (y Int) (z Int))
  (! (=> (< 0 x) (= (mod (+ (* x y) z) x) (mod z x))) :pattern ((mod (+ (* x y) z) x)) )))

(declare-fun rotate_right1 ((_ BitVec 8) Int) (_ BitVec 8))

(declare-fun rotate_left1 ((_ BitVec 8) Int) (_ BitVec 8))

(declare-fun pow2 (Int) Int)

(define-fun to_int1 ((x (_ BitVec 8))) Int (ite (bvsge x (_ bv0 8))
                                           (bv2nat x) (- (- 256 (bv2nat x)))))

(define-fun uint_in_range ((i Int)) Bool (and (<= 0 i) (<= i 255)))

;; lsr_bv_is_lsr
  (assert
  (forall ((x (_ BitVec 8)) (n (_ BitVec 8)))
  (= (bvlshr x n) (lsr x (bv2nat n)))))

;; asr_bv_is_asr
  (assert
  (forall ((x (_ BitVec 8)) (n (_ BitVec 8)))
  (= (bvashr x n) (asr x (bv2nat n)))))

;; lsl_bv_is_lsl
  (assert
  (forall ((x (_ BitVec 8)) (n (_ BitVec 8)))
  (= (bvshl x n) (lsl x (bv2nat n)))))

;; rotate_left_bv_is_rotate_left
  (assert
  (forall ((v (_ BitVec 8)) (n (_ BitVec 8)))
  (= (bvor (bvshl v (bvurem n (_ bv8 8))) (bvlshr v (bvsub (_ bv8 8) (bvurem n (_ bv8 8))))) 
  (rotate_left1 v (bv2nat n)))))

;; rotate_right_bv_is_rotate_right
  (assert
  (forall ((v (_ BitVec 8)) (n (_ BitVec 8)))
  (= (bvor (bvlshr v (bvurem n (_ bv8 8))) (bvshl v (bvsub (_ bv8 8) (bvurem n (_ bv8 8))))) 
  (rotate_right1 v (bv2nat n)))))

(declare-fun nth_bv ((_ BitVec 8) (_ BitVec 8)) Bool)

;; nth_bv_def
  (assert
  (forall ((x (_ BitVec 8)) (i (_ BitVec 8)))
  (= (= (nth_bv x i) true) (not (= (bvand (bvlshr x i) #x01) #x00)))))

;; Nth_bv_is_nth
  (assert
  (forall ((x (_ BitVec 8)) (i (_ BitVec 8)))
  (= (nth x (bv2nat i)) (nth_bv x i))))

;; Nth_bv_is_nth2
  (assert
  (forall ((x (_ BitVec 8)) (i Int))
  (=> (and (<= 0 i) (< i 256)) (= (nth_bv x ((_ int2bv 8) i)) (nth x i)))))

(declare-fun eq_sub_bv ((_ BitVec 8) (_ BitVec 8) (_ BitVec 8)
  (_ BitVec 8)) Bool)

;; eq_sub_bv_def
  (assert
  (forall ((a (_ BitVec 8)) (b (_ BitVec 8)) (i (_ BitVec 8))
  (n (_ BitVec 8)))
  (let ((mask (bvshl (bvsub (bvshl #x01 n) #x01) i)))
  (= (eq_sub_bv a b i n) (= (bvand b mask) (bvand a mask))))))

(define-fun eq_sub ((a (_ BitVec 8)) (b (_ BitVec 8)) (i Int)
  (n Int)) Bool (forall ((j Int))
                (=> (and (<= i j) (< j (+ i n))) (= (nth a j) (nth b j)))))

;; eq_sub_equiv
  (assert
  (forall ((a (_ BitVec 8)) (b (_ BitVec 8)) (i (_ BitVec 8))
  (n (_ BitVec 8)))
  (= (eq_sub a b (bv2nat i) (bv2nat n)) (eq_sub_bv a b i n))))

(declare-datatypes ((t__ref 0))
(((t__refqtmk (t__content (_ BitVec 8))))))
(declare-fun power ((_ BitVec 8) Int) (_ BitVec 8))

(define-fun bv_min ((x (_ BitVec 8))
  (y (_ BitVec 8))) (_ BitVec 8) (ite (bvule x y) x y))

(define-fun bv_max ((x (_ BitVec 8))
  (y (_ BitVec 8))) (_ BitVec 8) (ite (bvule x y) y x))

(define-fun min ((x Int) (y Int)) Int (ite (<= x y) x y))

(define-fun max ((x Int) (y Int)) Int (ite (<= x y) y x))

;; Min_r
  (assert (forall ((x Int) (y Int)) (=> (<= y x) (= (min x y) y))))

;; Max_l
  (assert (forall ((x Int) (y Int)) (=> (<= y x) (= (max x y) x))))

;; Min_comm
  (assert (forall ((x Int) (y Int)) (= (min x y) (min y x))))

;; Max_comm
  (assert (forall ((x Int) (y Int)) (= (max x y) (max y x))))

;; Min_assoc
  (assert
  (forall ((x Int) (y Int) (z Int)) (= (min (min x y) z) (min x (min y z)))))

;; Max_assoc
  (assert
  (forall ((x Int) (y Int) (z Int)) (= (max (max x y) z) (max x (max y z)))))

(declare-sort natural 0)

(declare-fun naturalqtint (natural) Int)

;; natural'axiom
  (assert
  (forall ((i natural))
  (and (<= 0 (naturalqtint i)) (<= (naturalqtint i) 2147483647))))

(define-fun in_range ((x Int)) Bool (and (<= 0 x) (<= x 2147483647)))

(declare-fun attr__ATTRIBUTE_IMAGE (Int) us_image)

(declare-fun attr__ATTRIBUTE_VALUE__pre_check (us_image) Bool)

(declare-fun attr__ATTRIBUTE_VALUE (us_image) Int)

(declare-fun user_eq (natural natural) Bool)

(declare-const dummy natural)

(declare-datatypes ((natural__ref 0))
(((natural__refqtmk (natural__content natural)))))
(define-fun natural__ref_natural__content__projection ((a natural__ref)) natural 
  (natural__content a))

(declare-fun make_leading_identifier (Int Int Int) (_ BitVec 8))

(declare-fun make_leading_identifier__function_guard ((_ BitVec 8) Int Int
  Int) Bool)

(declare-sort octet 0)

(declare-const attr__ATTRIBUTE_MODULUS (_ BitVec 8))

(declare-fun attr__ATTRIBUTE_IMAGE1 ((_ BitVec 8)) us_image)

(declare-fun attr__ATTRIBUTE_VALUE__pre_check1 (us_image) Bool)

(declare-fun attr__ATTRIBUTE_VALUE1 (us_image) (_ BitVec 8))

(declare-fun user_eq1 (octet octet) Bool)

(declare-const dummy1 octet)

(declare-datatypes ((octet__ref 0))
(((octet__refqtmk (octet__content octet)))))
(define-fun octet__ref_octet__content__projection ((a octet__ref)) octet 
  (octet__content a))

(define-fun dynamic_invariant ((temp___expr_218 (_ BitVec 8))
  (temp___is_init_214 Bool) (temp___skip_constant_215 Bool)
  (temp___do_toplevel_216 Bool) (temp___do_typ_inv_217 Bool)) Bool true)

(declare-sort tag_class_type 0)

(define-fun in_range1 ((x Int)) Bool (and (<= 0 x) (<= x 3)))

(declare-fun attr__ATTRIBUTE_IMAGE2 (Int) us_image)

(declare-fun attr__ATTRIBUTE_VALUE__pre_check2 (us_image) Bool)

(declare-fun attr__ATTRIBUTE_VALUE2 (us_image) Int)

(declare-fun user_eq2 (tag_class_type tag_class_type) Bool)

(declare-const dummy2 tag_class_type)

(declare-datatypes ((tag_class_type__ref 0))
(((tag_class_type__refqtmk (tag_class_type__content tag_class_type)))))
(define-fun tag_class_type__ref_tag_class_type__content__projection ((a tag_class_type__ref)) tag_class_type 
  (tag_class_type__content a))

(define-fun dynamic_invariant1 ((temp___expr_225 Int)
  (temp___is_init_221 Bool) (temp___skip_constant_222 Bool)
  (temp___do_toplevel_223 Bool)
  (temp___do_typ_inv_224 Bool)) Bool (=>
                                     (or (= temp___is_init_221 true)
                                     (<= 0 3)) (in_range1 temp___expr_225)))

(declare-sort structured_flag_type 0)

(define-fun in_range2 ((x Int)) Bool (and (<= 0 x) (<= x 1)))

(declare-fun attr__ATTRIBUTE_IMAGE3 (Int) us_image)

(declare-fun attr__ATTRIBUTE_VALUE__pre_check3 (us_image) Bool)

(declare-fun attr__ATTRIBUTE_VALUE3 (us_image) Int)

(declare-fun user_eq3 (structured_flag_type structured_flag_type) Bool)

(declare-const dummy3 structured_flag_type)

(declare-datatypes ((structured_flag_type__ref 0))
(((structured_flag_type__refqtmk
  (structured_flag_type__content structured_flag_type)))))
(define-fun structured_flag_type__ref_structured_flag_type__content__projection ((a structured_flag_type__ref)) structured_flag_type 
  (structured_flag_type__content a))

(define-fun dynamic_invariant2 ((temp___expr_232 Int)
  (temp___is_init_228 Bool) (temp___skip_constant_229 Bool)
  (temp___do_toplevel_230 Bool)
  (temp___do_typ_inv_231 Bool)) Bool (=>
                                     (or (= temp___is_init_228 true)
                                     (<= 0 1)) (in_range2 temp___expr_232)))

(declare-sort leading_number_type 0)

(define-fun in_range3 ((x Int)) Bool (and (<= 0 x) (<= x 34)))

(declare-fun attr__ATTRIBUTE_IMAGE4 (Int) us_image)

(declare-fun attr__ATTRIBUTE_VALUE__pre_check4 (us_image) Bool)

(declare-fun attr__ATTRIBUTE_VALUE4 (us_image) Int)

(declare-fun user_eq4 (leading_number_type leading_number_type) Bool)

(declare-const dummy4 leading_number_type)

(declare-datatypes ((leading_number_type__ref 0))
(((leading_number_type__refqtmk
  (leading_number_type__content leading_number_type)))))
(define-fun leading_number_type__ref_leading_number_type__content__projection ((a leading_number_type__ref)) leading_number_type 
  (leading_number_type__content a))

(define-fun dynamic_invariant3 ((temp___expr_239 Int)
  (temp___is_init_235 Bool) (temp___skip_constant_236 Bool)
  (temp___do_toplevel_237 Bool)
  (temp___do_typ_inv_238 Bool)) Bool (=>
                                     (or (= temp___is_init_235 true)
                                     (<= 0 34)) (in_range3 temp___expr_239)))

;; make_leading_identifier__post_axiom
  (assert
  (forall ((tag_class Int) (structured_flag Int) (tag Int))
  (! (=>
     (and
     (and (dynamic_invariant1 tag_class true true true true)
     (dynamic_invariant2 structured_flag true true true true))
     (dynamic_invariant3 tag true true true true))
     (let ((result (make_leading_identifier tag_class structured_flag tag)))
     (=> (make_leading_identifier__function_guard result tag_class
     structured_flag tag) (dynamic_invariant result true false true true)))) :pattern (
  (make_leading_identifier tag_class structured_flag tag)) )))

(declare-sort integer 0)

(declare-fun integerqtint (integer) Int)

;; integer'axiom
  (assert
  (forall ((i integer))
  (and (<= (- 2147483648) (integerqtint i)) (<= (integerqtint i) 2147483647))))

(define-fun in_range4 ((x Int)) Bool (and (<= (- 2147483648) x)
                                     (<= x 2147483647)))

(declare-fun attr__ATTRIBUTE_IMAGE5 (Int) us_image)

(declare-fun attr__ATTRIBUTE_VALUE__pre_check5 (us_image) Bool)

(declare-fun attr__ATTRIBUTE_VALUE5 (us_image) Int)

(declare-fun user_eq5 (integer integer) Bool)

(declare-const dummy5 integer)

(declare-datatypes ((integer__ref 0))
(((integer__refqtmk (integer__content integer)))))
(define-fun integer__ref_integer__content__projection ((a integer__ref)) integer 
  (integer__content a))

(define-fun to_rep ((x integer)) Int (integerqtint x))

(declare-fun of_rep (Int) integer)

;; inversion_axiom
  (assert
  (forall ((x integer)) (! (= (of_rep (to_rep x)) x) :pattern ((to_rep x)) )))

;; range_axiom
  (assert
  (forall ((x integer)) (! (in_range4 (to_rep x)) :pattern ((to_rep x)) )))

;; coerce_axiom
  (assert
  (forall ((x Int))
  (! (=> (in_range4 x) (= (to_rep (of_rep x)) x)) :pattern ((to_rep
                                                            (of_rep x))) )))

(declare-fun to_rep1 (octet) (_ BitVec 8))

(declare-fun of_rep1 ((_ BitVec 8)) octet)

;; inversion_axiom
  (assert
  (forall ((x octet))
  (! (= (of_rep1 (to_rep1 x)) x) :pattern ((to_rep1 x)) )))

;; range_axiom
  (assert true)

;; coerce_axiom
  (assert
  (forall ((x (_ BitVec 8)))
  (! (= (to_rep1 (of_rep1 x)) x) :pattern ((to_rep1 (of_rep1 x))) )))

(define-fun to_int2 ((x octet)) Int (bv2nat (to_rep1 x)))

;; range_int_axiom
  (assert
  (forall ((x octet)) (! (uint_in_range
  (to_int2 x)) :pattern ((to_int2 x)) )))

(declare-datatypes ((map__ref 0))
(((map__refqtmk (map__content (Array Int octet))))))
(declare-fun slide ((Array Int octet) Int Int) (Array Int octet))

;; slide_eq
  (assert
  (forall ((a (Array Int octet)))
  (forall ((first Int))
  (! (= (slide a first first) a) :pattern ((slide a first first)) ))))

;; slide_def
  (assert
  (forall ((a (Array Int octet)))
  (forall ((old_first Int))
  (forall ((new_first Int))
  (forall ((i Int))
  (! (= (select (slide a old_first new_first) i) (select a (- i (- new_first old_first)))) :pattern ((select 
  (slide a old_first new_first) i)) ))))))

(define-fun bool_eq ((a (Array Int octet)) (a__first Int) (a__last Int)
  (b (Array Int octet)) (b__first Int)
  (b__last Int)) Bool (ite (and
                           (ite (<= a__first a__last)
                           (and (<= b__first b__last)
                           (= (- a__last a__first) (- b__last b__first)))
                           (< b__last b__first))
                           (forall ((temp___idx_155 Int))
                           (=>
                           (and (<= a__first temp___idx_155)
                           (<= temp___idx_155 a__last))
                           (= (to_rep1 (select a temp___idx_155)) (to_rep1
                                                                  (select b (+ (- b__first a__first) temp___idx_155)))))))
                      true false))

;; bool_eq_rev
  (assert
  (forall ((a (Array Int octet)) (b (Array Int octet)))
  (forall ((a__first Int) (a__last Int) (b__first Int) (b__last Int))
  (=> (= (bool_eq b b__first b__last a a__first a__last) true)
  (and
  (ite (<= a__first a__last)
  (and (<= b__first b__last) (= (- a__last a__first) (- b__last b__first)))
  (< b__last b__first))
  (forall ((temp___idx_155 Int))
  (=> (and (<= a__first temp___idx_155) (<= temp___idx_155 a__last))
  (= (to_rep1 (select a temp___idx_155)) (to_rep1
                                         (select b (+ (- b__first a__first) temp___idx_155)))))))))))

(declare-sort t 0)

(declare-fun first (t) integer)

(declare-fun last (t) integer)

(declare-fun mk (Int Int) t)

;; mk_def
  (assert
  (forall ((f Int) (l Int))
  (! (=> (in_range4 f)
     (=> (in_range4 l)
     (and (= (to_rep (first (mk f l))) f) (= (to_rep (last (mk f l))) l)))) :pattern (
  (mk f l)) )))

(define-fun dynamic_property ((range_first Int) (range_last Int) (low Int)
  (high Int)) Bool (and (in_range4 low)
                   (and (in_range4 high)
                   (=> (<= low high) (and (in_range low) (in_range high))))))

(declare-datatypes ((us_t 0))
(((us_tqtmk (elts (Array Int octet))(rt t)))))
(define-fun to_array ((a us_t)) (Array Int octet) (elts a))

(define-fun of_array ((a (Array Int octet)) (f Int)
  (l Int)) us_t (us_tqtmk a (mk f l)))

(define-fun first1 ((a us_t)) Int (to_rep (first (rt a))))

(define-fun last1 ((a us_t)) Int (to_rep (last (rt a))))

(define-fun length1 ((a us_t)) Int (ite (<= (first1 a) (last1 a))
                                   (+ (- (last1 a) (first1 a)) 1) 0))

(declare-const value__size Int)

(declare-const object__size Int)

(declare-const component__size Int)

(declare-const alignment Int)

;; value__size_axiom
  (assert (<= 0 value__size))

;; object__size_axiom
  (assert (<= 0 object__size))

;; component__size_axiom
  (assert (<= 0 component__size))

;; alignment_axiom
  (assert (<= 0 alignment))

(define-fun bool_eq1 ((x us_t)
  (y us_t)) Bool (bool_eq (elts x) (to_rep (first (rt x)))
                 (to_rep (last (rt x))) (elts y) (to_rep (first (rt y)))
                 (to_rep (last (rt y)))))

(declare-fun user_eq6 (us_t us_t) Bool)

(declare-const dummy6 us_t)

(declare-datatypes ((octet_array__ref 0))
(((octet_array__refqtmk (octet_array__content us_t)))))
(define-fun octet_array__ref_octet_array__content__projection ((a octet_array__ref)) us_t 
  (octet_array__content a))

(define-fun dynamic_invariant4 ((temp___expr_39 Int) (temp___is_init_35 Bool)
  (temp___skip_constant_36 Bool) (temp___do_toplevel_37 Bool)
  (temp___do_typ_inv_38 Bool)) Bool (=>
                                    (or (= temp___is_init_35 true)
                                    (<= 0 2147483647)) (in_range
                                    temp___expr_39)))

(declare-fun put_length_value (Int) us_t)

(declare-fun put_length_value__function_guard (us_t Int) Bool)

(define-fun dynamic_invariant5 ((temp___expr_246 us_t)
  (temp___is_init_242 Bool) (temp___skip_constant_243 Bool)
  (temp___do_toplevel_244 Bool)
  (temp___do_typ_inv_245 Bool)) Bool (=>
                                     (not (= temp___skip_constant_243 true))
                                     (dynamic_property 0 2147483647
                                     (first1 temp___expr_246)
                                     (last1 temp___expr_246))))

;; put_length_value__post_axiom
  (assert
  (forall ((length2 Int))
  (! (=> (dynamic_invariant4 length2 true true true true)
     (let ((result (put_length_value length2)))
     (=> (put_length_value__function_guard result length2)
     (and (<= (length1 result) 5) (dynamic_invariant5 result true false true
     true))))) :pattern ((put_length_value length2)) )))

(declare-const value us_t)

(declare-const attr__ATTRIBUTE_ADDRESS Int)

(declare-fun concat1 ((Array Int octet) Int Int (Array Int octet) Int
  Int) (Array Int octet))

;; concat_def
  (assert
  (forall ((a (Array Int octet)) (b (Array Int octet)))
  (forall ((a_first Int) (a_last Int) (b_first Int) (b_last Int))
  (forall ((i Int))
  (! (and
     (=> (and (<= a_first i) (<= i a_last))
     (= (select (concat1 a a_first a_last b b_first b_last) i) (select a i)))
     (=> (< a_last i)
     (= (select (concat1 a a_first a_last b b_first b_last) i) (select b (+ (- i a_last) (- b_first 1)))))) :pattern ((select 
  (concat1 a a_first a_last b b_first b_last) i)) )))))

(declare-fun concat_singleton_left (octet Int (Array Int octet) Int
  Int) (Array Int octet))

;; concat_singleton_left_def
  (assert
  (forall ((a octet))
  (forall ((b (Array Int octet)))
  (forall ((a_first Int) (b_first Int) (b_last Int))
  (! (and
     (= (select (concat_singleton_left a a_first b b_first b_last) a_first) a)
     (forall ((i Int))
     (! (=> (< a_first i)
        (= (select (concat_singleton_left a a_first b b_first b_last) i) (select b (+ (- i a_first) (- b_first 1))))) :pattern ((select 
     (concat_singleton_left a a_first b b_first b_last) i)) ))) :pattern (
  (concat_singleton_left a a_first b b_first b_last)) )))))

(declare-fun concat_singleton_right ((Array Int octet) Int Int
  octet) (Array Int octet))

;; concat_singleton_right_def
  (assert
  (forall ((a (Array Int octet)))
  (forall ((b octet))
  (forall ((a_first Int) (a_last Int))
  (! (and
     (= (select (concat_singleton_right a a_first a_last b) (+ a_last 1)) b)
     (forall ((i Int))
     (! (=> (and (<= a_first i) (<= i a_last))
        (= (select (concat_singleton_right a a_first a_last b) i) (select a i))) :pattern ((select 
     (concat_singleton_right a a_first a_last b) i)) :pattern ((select a i)) ))) :pattern (
  (concat_singleton_right a a_first a_last b)) )))))

(declare-fun concat_singletons (octet Int octet) (Array Int octet))

;; concat_singletons_def
  (assert
  (forall ((a octet) (b octet))
  (forall ((a_first Int))
  (! (and (= (select (concat_singletons a a_first b) a_first) a)
     (= (select (concat_singletons a a_first b) (+ a_first 1)) b)) :pattern (
  (concat_singletons a a_first b)) ))))

(declare-fun singleton1 (octet Int) (Array Int octet))

;; singleton_def
  (assert
  (forall ((v octet))
  (forall ((i Int))
  (! (= (select (singleton1 v i) i) v) :pattern ((select (singleton1 v i) i)) ))))

(define-fun dynamic_invariant6 ((temp___expr_18 Int) (temp___is_init_14 Bool)
  (temp___skip_constant_15 Bool) (temp___do_toplevel_16 Bool)
  (temp___do_typ_inv_17 Bool)) Bool (=>
                                    (or (= temp___is_init_14 true)
                                    (<= (- 2147483648) 2147483647))
                                    (in_range4 temp___expr_18)))

(assert
;; defqtvc
 ;; File "hermes-der-encode.ads", line 34, characters 0-0
  (not
  (=> (dynamic_invariant5 value true false true true)
  (let ((o (length1 value)))
  (=> (in_range o)
  (let ((temp___399 (put_length_value o)))
  (=>
  (and (put_length_value__function_guard temp___399 o)
  (and (dynamic_invariant5 temp___399 true false true true)
  (<= (length1 temp___399) 5)))
  (let ((temp___398 (make_leading_identifier 0 0 4)))
  (=>
  (and (make_leading_identifier__function_guard temp___398 0 0 4)
  (dynamic_invariant temp___398 true false true true)) (in_range
  (- (+ 0 (+ 1 (length (first1 temp___399) (last1 temp___399)))) 1)))))))))))
(check-sat)
